p cnf 7230 18
4724 -4725 0
-2288 -4094 -4098 -4138 4722 0
4094 -4723 0
2288 -4723 0
4098 -4723 0
-4086 4719 0
4138 -4723 0
-4722 4723 0
4720 4721 0
4088 -4721 0
-4088 -4720 0
-4090 -4094 -4098 -4138 4725 0
-4718 -4719 0
4718 4719 0
4090 -4725 0
4138 -4725 0
4098 -4725 0
4094 -4725 0
